100 100
49 63
30 26
41 4
9 35
6 3
36 79
25 25
45 14
50 1
48 11
8 5
35 92
15 91
26 31
20 60
19 97
44 34
21 16
40 87
30 45
17 48
4 68
13 22
9 96
50 90
5 9
32 28
11 47
7 58
46 30
14 40
15 19
7 33
8 94
39 70
39 6
49 66
3 39
36 51
23 21
35 23
45 61
5 73
21 32
10 82
12 74
16 81
33 41
28 20
37 65
16 75
31 12
40 57
29 93
18 54
27 15
29 46
14 37
1 29
17 55
6 88
19 59
4 24
41 67
20 84
22 85
23 13
12 100
25 27
31 8
38 95
18 56
47 64
22 38
42 7
3 36
43 99
33 83
13 44
24 71
44 76
34 52
47 69
2 18
27 17
2 43
28 80
43 2
24 10
32 78
46 86
34 72
42 98
11 50
37 42
1 49
38 53
48 62
10 77
26 89
